Set parameter Username
Set parameter LogFile to value "gurobi.log"
Academic license - for non-commercial use only - expires 2024-05-02
Using license file /Users/sissi/gurobi.lic

Gurobi Optimizer version 10.0.1 build v10.0.1rc0 (mac64[arm])
Copyright (c) 2023, Gurobi Optimization, LLC

Read OPB format model from file pbo/p_pbo_0_1888.opb
Reading time = 0.01 seconds
(null): 2005 rows, 1057 columns, 5973 nonzeros

CPU model: Apple M2
Thread count: 8 physical cores, 8 logical processors, using up to 8 threads

Optimize a model with 2005 rows, 1057 columns and 5973 nonzeros
Model fingerprint: 0x3e90c59c
Variable types: 0 continuous, 1057 integer (1057 binary)
Coefficient statistics:
  Matrix range     [1e+00, 1e+00]
  Objective range  [1e+00, 4e+00]
  Bounds range     [1e+00, 1e+00]
  RHS range        [1e+00, 1e+00]
Found heuristic solution: objective -360.0000000
Presolve removed 1001 rows and 511 columns
Presolve time: 0.00s
Presolved: 1004 rows, 546 columns, 3012 nonzeros
Variable types: 0 continuous, 546 integer (546 binary)

Root relaxation: objective -6.150000e+02, 116 iterations, 0.00 seconds (0.00 work units)

    Nodes    |    Current Node    |     Objective Bounds      |     Work
 Expl Unexpl |  Obj  Depth IntInf | Incumbent    BestBd   Gap | It/Node Time

     0     0 -615.00000    0   44 -360.00000 -615.00000  70.8%     -    0s
     0     0 -431.99531    0  532 -360.00000 -431.99531  20.0%     -    0s
     0     0 -405.02165    0  540 -360.00000 -405.02165  12.5%     -    1s
     0     0 -403.69477    0  540 -360.00000 -403.69477  12.1%     -    1s
H    0     0                    -384.0000000 -403.49051  5.08%     -    1s
     0     0 -403.49051    0  540 -384.00000 -403.49051  5.08%     -    1s
     0     0 -403.37285    0  541 -384.00000 -403.37285  5.05%     -    1s
     0     0 -398.60942    0  539 -384.00000 -398.60942  3.80%     -    1s
     0     0 -397.49469    0  541 -384.00000 -397.49469  3.51%     -    2s
     0     0 -397.09066    0  540 -384.00000 -397.09066  3.41%     -    2s
     0     0 -396.94798    0  542 -384.00000 -396.94798  3.37%     -    2s
H    0     0                    -395.0000000 -396.94798  0.49%     -    2s
     0     0     cutoff    0      -395.00000 -395.00000  0.00%     -    2s

Cutting planes:
  MIR: 129
  RLT: 231

Explored 1 nodes (6438 simplex iterations) in 2.21 seconds (1.18 work units)
Thread count was 8 (of 8 available processors)

Solution count 3: -395 -384 -360 
No other solutions better than -395

Optimal solution found (tolerance 1.00e-04)
Best objective -3.950000000000e+02, best bound -3.950000000000e+02, gap 0.0000%

Wrote result file 'solution/p_0_1888.sol'

